NAME          ClpDefau  FREE
ROWS
 N  OBJROW
 L  ZMUNI1_PCT
 L  ZMUNI2_PCT
 L  ZMUNI3_PCT
 L  ZMUNI4_PCT
 L  ZMUNI5_PCT
 L  ZMUNI6_PCT
 L  ZMUNI7_PCT
 L  ZMUNI8_PCT
 L  ZMUNI9_PCT
COLUMNS
    QMUNI1 OBJROW 1.          
    QMUNI1 ZMUNI1_PCT 28439.2357  
    QMUNI1 ZMUNI2_PCT 2003.09754  
    QMUNI1 ZMUNI3_PCT 4806.61393  
    QMUNI1 ZMUNI4_PCT 3329.8493   
    QMUNI1 ZMUNI5_PCT 712.10861   
    QMUNI1 ZMUNI6_PCT 832.653     
    QMUNI1 ZMUNI7_PCT 1922.142505 
    QMUNI1 ZMUNI8_PCT 1629.7102   
    QMUNI1 ZMUNI9_PCT 850.86822   
    QMUNI2 OBJROW 1.          
    QMUNI2 ZMUNI1_PCT 1928.1388   
    QMUNI2 ZMUNI2_PCT 32673.35892 
    QMUNI2 ZMUNI3_PCT 2831.17295  
    QMUNI2 ZMUNI4_PCT 2839.6607   
    QMUNI2 ZMUNI5_PCT 348.94943   
    QMUNI2 ZMUNI6_PCT 381.9465    
    QMUNI2 ZMUNI7_PCT 1001.262665 
    QMUNI2 ZMUNI8_PCT 1254.06981  
    QMUNI2 ZMUNI9_PCT 1155.85327  
    QMUNI3 OBJROW 1.          
    QMUNI3 ZMUNI1_PCT 4711.9141   
    QMUNI3 ZMUNI2_PCT 2862.6442   
    QMUNI3 ZMUNI3_PCT 29777.81296 
    QMUNI3 ZMUNI4_PCT 5442.6193   
    QMUNI3 ZMUNI5_PCT 349.9031    
    QMUNI3 ZMUNI6_PCT 450.8018    
    QMUNI3 ZMUNI7_PCT 1499.015093 
    QMUNI3 ZMUNI8_PCT 1470.97111  
    QMUNI3 ZMUNI9_PCT 813.00735   
    QMUNI4 OBJROW 1.          
    QMUNI4 ZMUNI1_PCT 3707.5997   
    QMUNI4 ZMUNI2_PCT 3271.19828  
    QMUNI4 ZMUNI3_PCT 6169.89136  
    QMUNI4 ZMUNI4_PCT 97321.3196  
    QMUNI4 ZMUNI5_PCT 314.61716   
    QMUNI4 ZMUNI6_PCT 414.9437    
    QMUNI4 ZMUNI7_PCT 1317.864656 
    QMUNI4 ZMUNI8_PCT 1335.20365  
    QMUNI4 ZMUNI9_PCT 813.19809   
    QMUNI5 OBJROW 1.          
    QMUNI5 ZMUNI1_PCT 168.6097    
    QMUNI5 ZMUNI2_PCT 63.61008    
    QMUNI5 ZMUNI3_PCT 109.76792   
    QMUNI5 ZMUNI4_PCT 75.3403     
    QMUNI5 ZMUNI5_PCT 29931.92673 
    QMUNI5 ZMUNI6_PCT 2771.0914   
    QMUNI5 ZMUNI7_PCT 201.660394  
    QMUNI5 ZMUNI8_PCT 113.77335   
    QMUNI5 ZMUNI9_PCT 96.98868    
    QMUNI6 OBJROW 1.          
    QMUNI6 ZMUNI1_PCT 625.4197    
    QMUNI6 ZMUNI2_PCT 426.67389   
    QMUNI6 ZMUNI3_PCT 537.39548   
    QMUNI6 ZMUNI4_PCT 417.1372    
    QMUNI6 ZMUNI5_PCT 3008.17489  
    QMUNI6 ZMUNI6_PCT 30298.9006  
    QMUNI6 ZMUNI7_PCT 912.642479  
    QMUNI6 ZMUNI8_PCT 773.64445   
    QMUNI6 ZMUNI9_PCT 791.45431   
    QMUNI7 OBJROW 1.          
    QMUNI7 ZMUNI1_PCT 1639.843    
    QMUNI7 ZMUNI2_PCT 892.63916   
    QMUNI7 ZMUNI3_PCT 1432.51419  
    QMUNI7 ZMUNI4_PCT 1042.5568   
    QMUNI7 ZMUNI5_PCT 535.48813   
    QMUNI7 ZMUNI6_PCT 701.7135    
    QMUNI7 ZMUNI7_PCT 25582.969189
    QMUNI7 ZMUNI8_PCT 2345.10899  
    QMUNI7 ZMUNI9_PCT 711.44104   
    QMUNI8 OBJROW 1.          
    QMUNI8 ZMUNI1_PCT 1423.8358   
    QMUNI8 ZMUNI2_PCT 1195.52613  
    QMUNI8 ZMUNI3_PCT 1439.66675  
    QMUNI8 ZMUNI4_PCT 1095.9625   
    QMUNI8 ZMUNI5_PCT 353.24096   
    QMUNI8 ZMUNI6_PCT 450.4203    
    QMUNI8 ZMUNI7_PCT 2485.620975 
    QMUNI8 ZMUNI8_PCT 25217.65233 
    QMUNI8 ZMUNI9_PCT 1632.30896  
    QMUNI9 OBJROW 1.          
    QMUNI9 ZMUNI1_PCT 559.5208    
    QMUNI9 ZMUNI2_PCT 894.06967   
    QMUNI9 ZMUNI3_PCT 671.10062   
    QMUNI9 ZMUNI4_PCT 570.2973    
    QMUNI9 ZMUNI5_PCT 274.3721    
    QMUNI9 ZMUNI6_PCT 263.0233    
    QMUNI9 ZMUNI7_PCT 609.201193  
    QMUNI9 ZMUNI8_PCT 1138.57985  
    QMUNI9 ZMUNI9_PCT 23523.52142 
RHS
    RHS ZMUNI1_PCT  -1.35752536
    RHS ZMUNI2_PCT  -3.43894102
    RHS ZMUNI3_PCT  -3.80598074
    RHS ZMUNI4_PCT  -4.14830097
    RHS ZMUNI5_PCT 0.5563736796
    RHS ZMUNI6_PCT -0.019725337
    RHS ZMUNI7_PCT  -2.9025281 
    RHS ZMUNI8_PCT  -2.91033615
    RHS ZMUNI9_PCT  -1.57379337
BOUNDS
 LO BOUND QMUNI1 -0.001646319
 UP BOUND QMUNI1      1.1e+10
 LO BOUND QMUNI2 -0.001253214
 UP BOUND QMUNI2      1.1e+10
 LO BOUND QMUNI3 -0.001352827
 UP BOUND QMUNI3      1.1e+10
 LO BOUND QMUNI4 -0.000474386
 UP BOUND QMUNI4      1.1e+10
 LO BOUND QMUNI5 -0.001242682
 UP BOUND QMUNI5      1.1e+10
 LO BOUND QMUNI6 -0.001455965
 UP BOUND QMUNI6      1.1e+10
 LO BOUND QMUNI7 -0.001170065
 UP BOUND QMUNI7      1.1e+10
 LO BOUND QMUNI8 -0.001266851
 UP BOUND QMUNI8      1.1e+10
 LO BOUND QMUNI9 -0.001556401
 UP BOUND QMUNI9      1.1e+10
ENDATA
